param nDepositos := 6;

param nClientes := 3;

param custo_fixo :=
1            100
2            100            
3            100
4            100
5            100
6            100
;

param custo_transporte :=     
1 1 10
1 2 10
1 3 10
1 4 10
1 5 10
1 6 10
2 1 10
2 2 10
2 3 10
2 4 10
2 5 10
2 6 10
3 1 10
3 2 10
3 3 10
3 4 10
3 5 10
3 6 10
;
